# Solution for model CO2_network_optimization
# Objective value = -1.0206238587725398e+04
arc_flow[TS1,TS2,0] 0
arc_flow[TS1,TS2,1] 0
arc_flow[sink_3,TS14,0] 0
arc_flow[sink_3,TS14,1] 0
arc_flow[TS12,TS6,0] 0
arc_flow[TS12,TS6,1] 13.2
arc_flow[source_2,source_4,0] 0
arc_flow[source_2,source_4,1] 0
arc_flow[sink_4,TS14,0] 0
arc_flow[sink_4,TS14,1] 13.2
arc_flow[TS13,TS7,0] 0
arc_flow[TS13,TS7,1] 0
arc_flow[TS14,TS12,0] 0
arc_flow[TS14,TS12,1] 13.2
arc_flow[source_4,TS8,0] 0
arc_flow[source_4,TS8,1] 0
arc_flow[source_2,TS8,0] 0
arc_flow[source_2,TS8,1] 0
arc_flow[TS13,source_6,0] 8.8
arc_flow[TS13,source_6,1] 0
arc_flow[sink_1,TS3,0] 0
arc_flow[sink_1,TS3,1] 0
arc_flow[sink_3,TS4,0] 0
arc_flow[sink_3,TS4,1] 0
arc_flow[TS12,TS14,0] 0
arc_flow[TS12,TS14,1] 0
arc_flow[TS2,TS1,0] 0
arc_flow[TS2,TS1,1] 0
arc_flow[TS3,TS4,0] 0
arc_flow[TS3,TS4,1] 0
arc_flow[source_7,sink_6,0] 0
arc_flow[source_7,sink_6,1] 0
arc_flow[TS13,source_3,0] 0
arc_flow[TS13,source_3,1] 0
arc_flow[TS6,TS12,0] 0
arc_flow[TS6,TS12,1] 0
arc_flow[sink_6,source_7,0] 0
arc_flow[sink_6,source_7,1] 0
arc_flow[source_1,source_2,0] 0
arc_flow[source_1,source_2,1] 0
arc_flow[TS3,sink_1,0] 0
arc_flow[TS3,sink_1,1] 0
arc_flow[source_3,source_1,0] 0
arc_flow[source_3,source_1,1] 0
arc_flow[TS9,source_5,0] 0
arc_flow[TS9,source_5,1] 0
arc_flow[sink_6,TS2,0] 0
arc_flow[sink_6,TS2,1] 0
arc_flow[source_1,source_3,0] 4.8
arc_flow[source_1,source_3,1] 0
arc_flow[source_5,sink_3,0] 0
arc_flow[source_5,sink_3,1] 0
arc_flow[TS11,source_6,0] 0
arc_flow[TS11,source_6,1] 0
arc_flow[sink_3,TS5,0] 0
arc_flow[sink_3,TS5,1] 0
arc_flow[TS14,sink_3,0] 0
arc_flow[TS14,sink_3,1] 0
arc_flow[TS8,source_4,0] 0
arc_flow[TS8,source_4,1] 0
arc_flow[TS7,source_2,0] 0
arc_flow[TS7,source_2,1] 0
arc_flow[sink_2,TS5,0] 0
arc_flow[sink_2,TS5,1] 0
arc_flow[source_2,source_1,0] 0
arc_flow[source_2,source_1,1] 0
arc_flow[TS2,sink_2,0] 0
arc_flow[TS2,sink_2,1] 0
arc_flow[sink_5,TS1,0] 0
arc_flow[sink_5,TS1,1] 0
arc_flow[TS10,sink_4,0] 0
arc_flow[TS10,sink_4,1] 11.6
arc_flow[source_1,source_4,0] 0
arc_flow[source_1,source_4,1] 0
arc_flow[source_3,source_2,0] 0
arc_flow[source_3,source_2,1] 0
arc_flow[source_5,TS11,0] 0
arc_flow[source_5,TS11,1] 0
arc_flow[source_7,sink_1,0] 1.4
arc_flow[source_7,sink_1,1] 0
arc_flow[TS2,sink_6,0] 0
arc_flow[TS2,sink_6,1] 0
arc_flow[TS9,TS10,0] 0
arc_flow[TS9,TS10,1] 0
arc_flow[TS12,source_6,0] 0
arc_flow[TS12,source_6,1] 0
arc_flow[source_6,TS10,0] 0
arc_flow[source_6,TS10,1] 11.6
arc_flow[source_6,TS12,0] 0
arc_flow[source_6,TS12,1] 0
arc_flow[TS5,sink_2,0] 0
arc_flow[TS5,sink_2,1] 0
arc_flow[sink_4,TS9,0] 0
arc_flow[sink_4,TS9,1] 0
arc_flow[TS14,sink_4,0] 0
arc_flow[TS14,sink_4,1] 0
arc_flow[TS10,source_6,0] 0
arc_flow[TS10,source_6,1] 0
arc_flow[TS4,sink_3,0] 0
arc_flow[TS4,sink_3,1] 0
arc_flow[source_4,source_1,0] 0
arc_flow[source_4,source_1,1] 0
arc_flow[TS7,TS6,0] 0
arc_flow[TS7,TS6,1] 0
arc_flow[TS1,sink_5,0] 0
arc_flow[TS1,sink_5,1] 0
arc_flow[source_6,TS13,0] 0
arc_flow[source_6,TS13,1] 0
arc_flow[sink_1,sink_6,0] 0
arc_flow[sink_1,sink_6,1] 0
arc_flow[TS11,source_5,0] 0
arc_flow[TS11,source_5,1] 0
arc_flow[TS4,TS5,0] 0
arc_flow[TS4,TS5,1] 0
arc_flow[sink_1,source_7,0] 0
arc_flow[sink_1,source_7,1] 0
arc_flow[TS5,sink_3,0] 0
arc_flow[TS5,sink_3,1] 0
arc_flow[TS4,TS3,0] 0
arc_flow[TS4,TS3,1] 0
arc_flow[TS9,sink_4,0] 1.6
arc_flow[TS9,sink_4,1] 0
arc_flow[sink_6,sink_1,0] 0
arc_flow[sink_6,sink_1,1] 0
arc_flow[sink_2,TS2,0] 0
arc_flow[sink_2,TS2,1] 0
arc_flow[TS10,TS9,0] 0
arc_flow[TS10,TS9,1] 0
arc_flow[sink_5,TS8,0] 0
arc_flow[sink_5,TS8,1] 0
arc_flow[source_2,TS7,0] 0
arc_flow[source_2,TS7,1] 0
arc_flow[TS6,TS7,0] 0
arc_flow[TS6,TS7,1] 0
arc_flow[TS8,sink_5,0] 0
arc_flow[TS8,sink_5,1] 0
arc_flow[TS7,TS13,0] 0
arc_flow[TS7,TS13,1] 0
arc_flow[TS11,source_1,0] 0
arc_flow[TS11,source_1,1] 0
arc_flow[TS8,source_2,0] 0
arc_flow[TS8,source_2,1] 0
arc_flow[source_4,source_2,0] 1.4
arc_flow[source_4,source_2,1] 0
arc_flow[source_5,TS9,0] 1.6
arc_flow[source_5,TS9,1] 0
arc_flow[source_7,TS1,0] 0
arc_flow[source_7,TS1,1] 0
arc_flow[TS5,TS4,0] 0
arc_flow[TS5,TS4,1] 0
arc_flow[sink_6,TS3,0] 0
arc_flow[sink_6,TS3,1] 0
arc_flow[source_2,source_3,0] 2.4
arc_flow[source_2,source_3,1] 0
arc_flow[source_6,TS11,0] 0
arc_flow[source_6,TS11,1] 0
arc_flow[TS3,sink_6,0] 0
arc_flow[TS3,sink_6,1] 0
arc_flow[source_3,TS13,0] 8.8
arc_flow[source_3,TS13,1] 0
arc_flow[TS1,source_7,0] 0
arc_flow[TS1,source_7,1] 0
arc_flow[sink_2,TS6,0] 0
arc_flow[sink_2,TS6,1] 0
arc_flow[source_1,TS11,0] 0
arc_flow[source_1,TS11,1] 0
arc_flow[TS6,sink_2,0] 0
arc_flow[TS6,sink_2,1] 13.2
arc_flow[sink_4,TS10,0] 0
arc_flow[sink_4,TS10,1] 0
arc_flow[sink_3,source_5,0] 0
arc_flow[sink_3,source_5,1] 0
CO2_captured[source_7] 1.4
CO2_captured[source_2] 1
CO2_captured[source_3] 1.6
CO2_captured[source_5] 1.6
CO2_captured[source_4] 1.4
CO2_captured[source_6] 2.7999999999999989e+00
CO2_captured[source_1] 4.8
CO2_injected[sink_4] 0
CO2_injected[sink_2] 396
CO2_injected[sink_5] 0
CO2_injected[sink_6] 0
CO2_injected[sink_3] 0
CO2_injected[sink_1] 42
arc_built[TS1,TS2,0] 0
arc_built[TS1,TS2,1] 0
arc_built[sink_3,TS14,0] 0
arc_built[sink_3,TS14,1] 0
arc_built[TS12,TS6,0] 0
arc_built[TS12,TS6,1] 1
arc_built[source_2,source_4,0] 0
arc_built[source_2,source_4,1] 0
arc_built[sink_4,TS14,0] 0
arc_built[sink_4,TS14,1] 1
arc_built[TS13,TS7,0] 0
arc_built[TS13,TS7,1] 0
arc_built[TS14,TS12,0] 0
arc_built[TS14,TS12,1] 1
arc_built[source_4,TS8,0] 0
arc_built[source_4,TS8,1] 0
arc_built[source_2,TS8,0] 0
arc_built[source_2,TS8,1] 0
arc_built[TS13,source_6,0] 1
arc_built[TS13,source_6,1] 0
arc_built[sink_1,TS3,0] 0
arc_built[sink_1,TS3,1] 0
arc_built[sink_3,TS4,0] 0
arc_built[sink_3,TS4,1] 0
arc_built[TS12,TS14,0] 0
arc_built[TS12,TS14,1] 0
arc_built[TS2,TS1,0] 0
arc_built[TS2,TS1,1] 0
arc_built[TS3,TS4,0] 0
arc_built[TS3,TS4,1] 0
arc_built[source_7,sink_6,0] 0
arc_built[source_7,sink_6,1] 0
arc_built[TS13,source_3,0] 0
arc_built[TS13,source_3,1] 0
arc_built[TS6,TS12,0] 0
arc_built[TS6,TS12,1] 0
arc_built[sink_6,source_7,0] 0
arc_built[sink_6,source_7,1] 0
arc_built[source_1,source_2,0] 0
arc_built[source_1,source_2,1] 0
arc_built[TS3,sink_1,0] 0
arc_built[TS3,sink_1,1] 0
arc_built[source_3,source_1,0] 0
arc_built[source_3,source_1,1] 0
arc_built[TS9,source_5,0] 0
arc_built[TS9,source_5,1] 0
arc_built[sink_6,TS2,0] 0
arc_built[sink_6,TS2,1] 0
arc_built[source_1,source_3,0] 1
arc_built[source_1,source_3,1] 0
arc_built[source_5,sink_3,0] 0
arc_built[source_5,sink_3,1] 0
arc_built[TS11,source_6,0] 0
arc_built[TS11,source_6,1] 0
arc_built[sink_3,TS5,0] 0
arc_built[sink_3,TS5,1] 0
arc_built[TS14,sink_3,0] 0
arc_built[TS14,sink_3,1] 0
arc_built[TS8,source_4,0] 0
arc_built[TS8,source_4,1] 0
arc_built[TS7,source_2,0] 0
arc_built[TS7,source_2,1] 0
arc_built[sink_2,TS5,0] 0
arc_built[sink_2,TS5,1] 0
arc_built[source_2,source_1,0] 0
arc_built[source_2,source_1,1] 0
arc_built[TS2,sink_2,0] 0
arc_built[TS2,sink_2,1] 0
arc_built[sink_5,TS1,0] 0
arc_built[sink_5,TS1,1] 0
arc_built[TS10,sink_4,0] 0
arc_built[TS10,sink_4,1] 1
arc_built[source_1,source_4,0] 0
arc_built[source_1,source_4,1] 0
arc_built[source_3,source_2,0] 0
arc_built[source_3,source_2,1] 0
arc_built[source_5,TS11,0] 0
arc_built[source_5,TS11,1] 0
arc_built[source_7,sink_1,0] 1
arc_built[source_7,sink_1,1] 0
arc_built[TS2,sink_6,0] 0
arc_built[TS2,sink_6,1] 0
arc_built[TS9,TS10,0] 0
arc_built[TS9,TS10,1] 0
arc_built[TS12,source_6,0] 0
arc_built[TS12,source_6,1] 0
arc_built[source_6,TS10,0] 0
arc_built[source_6,TS10,1] 1
arc_built[source_6,TS12,0] 0
arc_built[source_6,TS12,1] 0
arc_built[TS5,sink_2,0] 0
arc_built[TS5,sink_2,1] 0
arc_built[sink_4,TS9,0] 0
arc_built[sink_4,TS9,1] 0
arc_built[TS14,sink_4,0] 0
arc_built[TS14,sink_4,1] 0
arc_built[TS10,source_6,0] 0
arc_built[TS10,source_6,1] 0
arc_built[TS4,sink_3,0] 0
arc_built[TS4,sink_3,1] 0
arc_built[source_4,source_1,0] 0
arc_built[source_4,source_1,1] 0
arc_built[TS7,TS6,0] 0
arc_built[TS7,TS6,1] 0
arc_built[TS1,sink_5,0] 0
arc_built[TS1,sink_5,1] 0
arc_built[source_6,TS13,0] 0
arc_built[source_6,TS13,1] 0
arc_built[sink_1,sink_6,0] 0
arc_built[sink_1,sink_6,1] 0
arc_built[TS11,source_5,0] 0
arc_built[TS11,source_5,1] 0
arc_built[TS4,TS5,0] 0
arc_built[TS4,TS5,1] 0
arc_built[sink_1,source_7,0] 0
arc_built[sink_1,source_7,1] 0
arc_built[TS5,sink_3,0] 0
arc_built[TS5,sink_3,1] 0
arc_built[TS4,TS3,0] 0
arc_built[TS4,TS3,1] 0
arc_built[TS9,sink_4,0] 1
arc_built[TS9,sink_4,1] 0
arc_built[sink_6,sink_1,0] 0
arc_built[sink_6,sink_1,1] 0
arc_built[sink_2,TS2,0] 0
arc_built[sink_2,TS2,1] 0
arc_built[TS10,TS9,0] 0
arc_built[TS10,TS9,1] 0
arc_built[sink_5,TS8,0] 0
arc_built[sink_5,TS8,1] 0
arc_built[source_2,TS7,0] 0
arc_built[source_2,TS7,1] 0
arc_built[TS6,TS7,0] 0
arc_built[TS6,TS7,1] 0
arc_built[TS8,sink_5,0] 0
arc_built[TS8,sink_5,1] 0
arc_built[TS7,TS13,0] 0
arc_built[TS7,TS13,1] 0
arc_built[TS11,source_1,0] 0
arc_built[TS11,source_1,1] 0
arc_built[TS8,source_2,0] 0
arc_built[TS8,source_2,1] 0
arc_built[source_4,source_2,0] 1
arc_built[source_4,source_2,1] 0
arc_built[source_5,TS9,0] 1
arc_built[source_5,TS9,1] 0
arc_built[source_7,TS1,0] 0
arc_built[source_7,TS1,1] 0
arc_built[TS5,TS4,0] 0
arc_built[TS5,TS4,1] 0
arc_built[sink_6,TS3,0] 0
arc_built[sink_6,TS3,1] 0
arc_built[source_2,source_3,0] 1
arc_built[source_2,source_3,1] 0
arc_built[source_6,TS11,0] 0
arc_built[source_6,TS11,1] 0
arc_built[TS3,sink_6,0] 0
arc_built[TS3,sink_6,1] 0
arc_built[source_3,TS13,0] 1
arc_built[source_3,TS13,1] 0
arc_built[TS1,source_7,0] 0
arc_built[TS1,source_7,1] 0
arc_built[sink_2,TS6,0] 0
arc_built[sink_2,TS6,1] 0
arc_built[source_1,TS11,0] 0
arc_built[source_1,TS11,1] 0
arc_built[TS6,sink_2,0] 0
arc_built[TS6,sink_2,1] 1
arc_built[sink_4,TS10,0] 0
arc_built[sink_4,TS10,1] 0
arc_built[sink_3,source_5,0] 0
arc_built[sink_3,source_5,1] 0
src_opened[source_7] 1
src_opened[source_2] 1
src_opened[source_3] 1
src_opened[source_5] 1
src_opened[source_4] 1
src_opened[source_6] 1
src_opened[source_1] 1
sink_opened[sink_4] 1
sink_opened[sink_2] 1
sink_opened[sink_5] 1
sink_opened[sink_6] 1
sink_opened[sink_3] 1
sink_opened[sink_1] 1
